\ Model GLayout_copy
\ LP format - for model browsing. Use MPS format to capture full model detail.
Minimize
 
Subject To
 PrespecifiedXOfElement(1): L[1] = 0
 0(ToLeftOf)1: - L[1] + R[0] + 182.625 LEFT[0,1] <= 150.625
Bounds
 L[1] free
 R[0] >= 160
Binaries
 LEFT[0,1]
Generals
 L[1] R[0]
End
